Fleet.lp
\ENCODING=ISO-8859-1
\Problem name: ilog.cplex

Minimize
 obj: - 15600 v#0 - 7800 x(1)#1 + 650 y(1)#2 - 9750 x(2)#3 + 650 y(2)#4
      - 10400 x(3)#5 + 650 y(3)#6 - 11050 x(4)#7 + 650 y(4)#8 - 11050 x(5)#9
      + 650 y(5)#10 - 11700 x(6)#11 + 650 y(6)#12 - 13000 x(7)#13 + 650 y(7)#14
      - 13000 x(8)#15 + 650 y(8)#16 - 13650 x(9)#17 + 650 y(9)#18
      - 14300 x(10)#19 + 650 y(10)#20 - 15600 x(11)#21 + 650 y(11)#22
      - 14300 x(12)#23 + 650 y(12)#24 - 13000 x(13)#25 + 650 y(13)#26
      - 11700 x(14)#27 + 650 y(14)#28 - 11050 x(15)#29 + 650 y(15)#30
      - 10400 x(16)#31 + 650 y(16)#32 - 9100 x(17)#33 + 650 y(17)#34
      - 8450 x(18)#35 + 650 y(18)#36 - 8450 x(19)#37 + 650 y(19)#38
      - 9100 x(20)#39 + 650 y(20)#40 - 9750 x(21)#41 + 650 y(21)#42
      - 10400 x(22)#43 + 650 y(22)#44 - 11050 x(23)#45 + 650 y(23)#46
      - 12350 x(24)#47 + 650 y(24)#48 - 13650 x(25)#49 + 650 y(25)#50
      - 14300 x(26)#51 + 650 y(26)#52 - 14950 x(27)#53 + 650 y(27)#54
      - 14300 x(28)#55 + 650 y(28)#56 - 15600 x(29)#57 + 650 y(29)#58
      - 16900 x(30)#59 + 650 y(30)#60 - 17550 x(31)#61 + 650 y(31)#62
      - 18200 x(32)#63 + 650 y(32)#64 - 19500 x(33)#65 + 650 y(33)#66
      - 20800 x(34)#67 + 650 y(34)#68 - 20800 x(35)#69 + 650 y(35)#70
      - 19500 x(36)#71 + 650 y(36)#72 - 18850 x(37)#73 + 650 y(37)#74
      - 18200 x(38)#75 + 650 y(38)#76 - 16900 x(39)#77 + 650 y(39)#78
      - 16250 x(40)#79 + 650 y(40)#80 - 16250 x(41)#81 + 650 y(41)#82
      - 15600 x(42)#83 + 650 y(42)#84 - 14300 x(43)#85 + 650 y(43)#86
      - 14300 x(44)#87 + 650 y(44)#88 - 12350 x(45)#89 + 650 y(45)#90
      - 13000 x(46)#91 + 650 y(46)#92 - 11700 x(47)#93 + 650 y(47)#94
      - 11050 x(48)#95 + 650 y(48)#96 - 10400 x(49)#97 + 650 y(49)#98
      - 10400 x(50)#99 + 650 y(50)#100 - 9100 x(51)#101 + 650 y(51)#102
      - 8450 x(52)#103 + 650 y(52)#104 + 853600 dummy#105
Subject To
 c1:   v#0 - 32 x(1)#1 >= -20
 c3:   v#0 - 32 x(1)#1 <= 12
 c5:   - v#0 + y(1)#2 <= 0
 c7:   - 32 x(1)#1 + y(1)#2 <= 0
 c9:   - v#0 - 32 x(1)#1 + y(1)#2 >= -32
 c11:  v#0 - 32 x(2)#3 >= -17
 c12:  v#0 - 32 x(2)#3 <= 15
 c13:  - v#0 + y(2)#4 <= 0
 c14:  - 32 x(2)#3 + y(2)#4 <= 0
 c16:  - v#0 - 32 x(2)#3 + y(2)#4 >= -32
 c18:  v#0 - 32 x(3)#5 >= -16
 c20:  v#0 - 32 x(3)#5 <= 16
 c22:  - v#0 + y(3)#6 <= 0
 c24:  - 32 x(3)#5 + y(3)#6 <= 0
 c26:  - v#0 - 32 x(3)#5 + y(3)#6 >= -32
 c28:  v#0 - 32 x(4)#7 >= -15
 c30:  v#0 - 32 x(4)#7 <= 17
 c32:  - v#0 + y(4)#8 <= 0
 c34:  - 32 x(4)#7 + y(4)#8 <= 0
 c36:  - v#0 - 32 x(4)#7 + y(4)#8 >= -32
 c38:  v#0 - 32 x(5)#9 >= -15
 c40:  v#0 - 32 x(5)#9 <= 17
 c42:  - v#0 + y(5)#10 <= 0
 c44:  - 32 x(5)#9 + y(5)#10 <= 0
 c46:  - v#0 - 32 x(5)#9 + y(5)#10 >= -32
 c48:  v#0 - 32 x(6)#11 >= -14
 c50:  v#0 - 32 x(6)#11 <= 18
 c52:  - v#0 + y(6)#12 <= 0
 c54:  - 32 x(6)#11 + y(6)#12 <= 0
 c56:  - v#0 - 32 x(6)#11 + y(6)#12 >= -32
 c58:  v#0 - 32 x(7)#13 >= -12
 c60:  v#0 - 32 x(7)#13 <= 20
 c62:  - v#0 + y(7)#14 <= 0
 c64:  - 32 x(7)#13 + y(7)#14 <= 0
 c66:  - v#0 - 32 x(7)#13 + y(7)#14 >= -32
 c68:  v#0 - 32 x(8)#15 >= -12
 c70:  v#0 - 32 x(8)#15 <= 20
 c72:  - v#0 + y(8)#16 <= 0
 c74:  - 32 x(8)#15 + y(8)#16 <= 0
 c76:  - v#0 - 32 x(8)#15 + y(8)#16 >= -32
 c78:  v#0 - 32 x(9)#17 >= -11
 c80:  v#0 - 32 x(9)#17 <= 21
 c82:  - v#0 + y(9)#18 <= 0
 c84:  - 32 x(9)#17 + y(9)#18 <= 0
 c86:  - v#0 - 32 x(9)#17 + y(9)#18 >= -32
 c88:  v#0 - 32 x(10)#19 >= -10
 c90:  v#0 - 32 x(10)#19 <= 22
 c92:  - v#0 + y(10)#20 <= 0
 c94:  - 32 x(10)#19 + y(10)#20 <= 0
 c96:  - v#0 - 32 x(10)#19 + y(10)#20 >= -32
 c98:  v#0 - 32 x(11)#21 >= -8
 c100: v#0 - 32 x(11)#21 <= 24
 c102: - v#0 + y(11)#22 <= 0
 c104: - 32 x(11)#21 + y(11)#22 <= 0
 c106: - v#0 - 32 x(11)#21 + y(11)#22 >= -32
 c108: v#0 - 32 x(12)#23 >= -10
 c110: v#0 - 32 x(12)#23 <= 22
 c112: - v#0 + y(12)#24 <= 0
 c114: - 32 x(12)#23 + y(12)#24 <= 0
 c116: - v#0 - 32 x(12)#23 + y(12)#24 >= -32
 c118: v#0 - 32 x(13)#25 >= -12
 c120: v#0 - 32 x(13)#25 <= 20
 c122: - v#0 + y(13)#26 <= 0
 c124: - 32 x(13)#25 + y(13)#26 <= 0
 c126: - v#0 - 32 x(13)#25 + y(13)#26 >= -32
 c128: v#0 - 32 x(14)#27 >= -14
 c130: v#0 - 32 x(14)#27 <= 18
 c132: - v#0 + y(14)#28 <= 0
 c134: - 32 x(14)#27 + y(14)#28 <= 0
 c136: - v#0 - 32 x(14)#27 + y(14)#28 >= -32
 c138: v#0 - 32 x(15)#29 >= -15
 c140: v#0 - 32 x(15)#29 <= 17
 c142: - v#0 + y(15)#30 <= 0
 c144: - 32 x(15)#29 + y(15)#30 <= 0
 c146: - v#0 - 32 x(15)#29 + y(15)#30 >= -32
 c148: v#0 - 32 x(16)#31 >= -16
 c150: v#0 - 32 x(16)#31 <= 16
 c152: - v#0 + y(16)#32 <= 0
 c154: - 32 x(16)#31 + y(16)#32 <= 0
 c156: - v#0 - 32 x(16)#31 + y(16)#32 >= -32
 c158: v#0 - 32 x(17)#33 >= -18
 c160: v#0 - 32 x(17)#33 <= 14
 c162: - v#0 + y(17)#34 <= 0
 c164: - 32 x(17)#33 + y(17)#34 <= 0
 c166: - v#0 - 32 x(17)#33 + y(17)#34 >= -32
 c168: v#0 - 32 x(18)#35 >= -19
 c170: v#0 - 32 x(18)#35 <= 13
 c172: - v#0 + y(18)#36 <= 0
 c174: - 32 x(18)#35 + y(18)#36 <= 0
 c176: - v#0 - 32 x(18)#35 + y(18)#36 >= -32
 c178: v#0 - 32 x(19)#37 >= -19
 c180: v#0 - 32 x(19)#37 <= 13
 c182: - v#0 + y(19)#38 <= 0
 c184: - 32 x(19)#37 + y(19)#38 <= 0
 c186: - v#0 - 32 x(19)#37 + y(19)#38 >= -32
 c188: v#0 - 32 x(20)#39 >= -18
 c190: v#0 - 32 x(20)#39 <= 14
 c192: - v#0 + y(20)#40 <= 0
 c194: - 32 x(20)#39 + y(20)#40 <= 0
 c196: - v#0 - 32 x(20)#39 + y(20)#40 >= -32
 c198: v#0 - 32 x(21)#41 >= -17
 c200: v#0 - 32 x(21)#41 <= 15
 c202: - v#0 + y(21)#42 <= 0
 c204: - 32 x(21)#41 + y(21)#42 <= 0
 c206: - v#0 - 32 x(21)#41 + y(21)#42 >= -32
 c208: v#0 - 32 x(22)#43 >= -16
 c210: v#0 - 32 x(22)#43 <= 16
 c212: - v#0 + y(22)#44 <= 0
 c214: - 32 x(22)#43 + y(22)#44 <= 0
 c216: - v#0 - 32 x(22)#43 + y(22)#44 >= -32
 c218: v#0 - 32 x(23)#45 >= -15
 c220: v#0 - 32 x(23)#45 <= 17
 c222: - v#0 + y(23)#46 <= 0
 c224: - 32 x(23)#45 + y(23)#46 <= 0
 c226: - v#0 - 32 x(23)#45 + y(23)#46 >= -32
 c228: v#0 - 32 x(24)#47 >= -13
 c230: v#0 - 32 x(24)#47 <= 19
 c232: - v#0 + y(24)#48 <= 0
 c234: - 32 x(24)#47 + y(24)#48 <= 0
 c236: - v#0 - 32 x(24)#47 + y(24)#48 >= -32
 c238: v#0 - 32 x(25)#49 >= -11
 c240: v#0 - 32 x(25)#49 <= 21
 c242: - v#0 + y(25)#50 <= 0
 c244: - 32 x(25)#49 + y(25)#50 <= 0
 c246: - v#0 - 32 x(25)#49 + y(25)#50 >= -32
 c248: v#0 - 32 x(26)#51 >= -10
 c250: v#0 - 32 x(26)#51 <= 22
 c252: - v#0 + y(26)#52 <= 0
 c254: - 32 x(26)#51 + y(26)#52 <= 0
 c256: - v#0 - 32 x(26)#51 + y(26)#52 >= -32
 c258: v#0 - 32 x(27)#53 >= -9
 c260: v#0 - 32 x(27)#53 <= 23
 c262: - v#0 + y(27)#54 <= 0
 c264: - 32 x(27)#53 + y(27)#54 <= 0
 c266: - v#0 - 32 x(27)#53 + y(27)#54 >= -32
 c268: v#0 - 32 x(28)#55 >= -10
 c270: v#0 - 32 x(28)#55 <= 22
 c272: - v#0 + y(28)#56 <= 0
 c274: - 32 x(28)#55 + y(28)#56 <= 0
 c276: - v#0 - 32 x(28)#55 + y(28)#56 >= -32
 c278: v#0 - 32 x(29)#57 >= -8
 c280: v#0 - 32 x(29)#57 <= 24
 c282: - v#0 + y(29)#58 <= 0
 c284: - 32 x(29)#57 + y(29)#58 <= 0
 c286: - v#0 - 32 x(29)#57 + y(29)#58 >= -32
 c288: v#0 - 32 x(30)#59 >= -6
 c290: v#0 - 32 x(30)#59 <= 26
 c292: - v#0 + y(30)#60 <= 0
 c294: - 32 x(30)#59 + y(30)#60 <= 0
 c296: - v#0 - 32 x(30)#59 + y(30)#60 >= -32
 c298: v#0 - 32 x(31)#61 >= -5
 c300: v#0 - 32 x(31)#61 <= 27
 c302: - v#0 + y(31)#62 <= 0
 c304: - 32 x(31)#61 + y(31)#62 <= 0
 c306: - v#0 - 32 x(31)#61 + y(31)#62 >= -32
 c308: v#0 - 32 x(32)#63 >= -4
 c310: v#0 - 32 x(32)#63 <= 28
 c312: - v#0 + y(32)#64 <= 0
 c314: - 32 x(32)#63 + y(32)#64 <= 0
 c316: - v#0 - 32 x(32)#63 + y(32)#64 >= -32
 c318: v#0 - 32 x(33)#65 >= -2
 c320: v#0 - 32 x(33)#65 <= 30
 c322: - v#0 + y(33)#66 <= 0
 c324: - 32 x(33)#65 + y(33)#66 <= 0
 c326: - v#0 - 32 x(33)#65 + y(33)#66 >= -32
 c328: v#0 - 32 x(34)#67 >= 0
 c330: v#0 - 32 x(34)#67 <= 32
 c332: - v#0 + y(34)#68 <= 0
 c334: - 32 x(34)#67 + y(34)#68 <= 0
 c336: - v#0 - 32 x(34)#67 + y(34)#68 >= -32
 c338: v#0 - 32 x(35)#69 >= 0
 c340: v#0 - 32 x(35)#69 <= 32
 c342: - v#0 + y(35)#70 <= 0
 c344: - 32 x(35)#69 + y(35)#70 <= 0
 c346: - v#0 - 32 x(35)#69 + y(35)#70 >= -32
 c348: v#0 - 32 x(36)#71 >= -2
 c350: v#0 - 32 x(36)#71 <= 30
 c352: - v#0 + y(36)#72 <= 0
 c354: - 32 x(36)#71 + y(36)#72 <= 0
 c356: - v#0 - 32 x(36)#71 + y(36)#72 >= -32
 c358: v#0 - 32 x(37)#73 >= -3
 c360: v#0 - 32 x(37)#73 <= 29
 c362: - v#0 + y(37)#74 <= 0
 c364: - 32 x(37)#73 + y(37)#74 <= 0
 c366: - v#0 - 32 x(37)#73 + y(37)#74 >= -32
 c368: v#0 - 32 x(38)#75 >= -4
 c370: v#0 - 32 x(38)#75 <= 28
 c372: - v#0 + y(38)#76 <= 0
 c374: - 32 x(38)#75 + y(38)#76 <= 0
 c376: - v#0 - 32 x(38)#75 + y(38)#76 >= -32
 c378: v#0 - 32 x(39)#77 >= -6
 c380: v#0 - 32 x(39)#77 <= 26
 c382: - v#0 + y(39)#78 <= 0
 c384: - 32 x(39)#77 + y(39)#78 <= 0
 c386: - v#0 - 32 x(39)#77 + y(39)#78 >= -32
 c388: v#0 - 32 x(40)#79 >= -7
 c390: v#0 - 32 x(40)#79 <= 25
 c392: - v#0 + y(40)#80 <= 0
 c394: - 32 x(40)#79 + y(40)#80 <= 0
 c396: - v#0 - 32 x(40)#79 + y(40)#80 >= -32
 c398: v#0 - 32 x(41)#81 >= -7
 c400: v#0 - 32 x(41)#81 <= 25
 c402: - v#0 + y(41)#82 <= 0
 c404: - 32 x(41)#81 + y(41)#82 <= 0
 c406: - v#0 - 32 x(41)#81 + y(41)#82 >= -32
 c408: v#0 - 32 x(42)#83 >= -8
 c410: v#0 - 32 x(42)#83 <= 24
 c412: - v#0 + y(42)#84 <= 0
 c414: - 32 x(42)#83 + y(42)#84 <= 0
 c416: - v#0 - 32 x(42)#83 + y(42)#84 >= -32
 c418: v#0 - 32 x(43)#85 >= -10
 c420: v#0 - 32 x(43)#85 <= 22
 c422: - v#0 + y(43)#86 <= 0
 c424: - 32 x(43)#85 + y(43)#86 <= 0
 c426: - v#0 - 32 x(43)#85 + y(43)#86 >= -32
 c428: v#0 - 32 x(44)#87 >= -10
 c430: v#0 - 32 x(44)#87 <= 22
 c432: - v#0 + y(44)#88 <= 0
 c434: - 32 x(44)#87 + y(44)#88 <= 0
 c436: - v#0 - 32 x(44)#87 + y(44)#88 >= -32
 c438: v#0 - 32 x(45)#89 >= -13
 c440: v#0 - 32 x(45)#89 <= 19
 c442: - v#0 + y(45)#90 <= 0
 c444: - 32 x(45)#89 + y(45)#90 <= 0
 c446: - v#0 - 32 x(45)#89 + y(45)#90 >= -32
 c448: v#0 - 32 x(46)#91 >= -12
 c450: v#0 - 32 x(46)#91 <= 20
 c452: - v#0 + y(46)#92 <= 0
 c454: - 32 x(46)#91 + y(46)#92 <= 0
 c456: - v#0 - 32 x(46)#91 + y(46)#92 >= -32
 c458: v#0 - 32 x(47)#93 >= -14
 c460: v#0 - 32 x(47)#93 <= 18
 c462: - v#0 + y(47)#94 <= 0
 c464: - 32 x(47)#93 + y(47)#94 <= 0
 c466: - v#0 - 32 x(47)#93 + y(47)#94 >= -32
 c468: v#0 - 32 x(48)#95 >= -15
 c470: v#0 - 32 x(48)#95 <= 17
 c472: - v#0 + y(48)#96 <= 0
 c474: - 32 x(48)#95 + y(48)#96 <= 0
 c476: - v#0 - 32 x(48)#95 + y(48)#96 >= -32
 c478: v#0 - 32 x(49)#97 >= -16
 c480: v#0 - 32 x(49)#97 <= 16
 c482: - v#0 + y(49)#98 <= 0
 c484: - 32 x(49)#97 + y(49)#98 <= 0
 c486: - v#0 - 32 x(49)#97 + y(49)#98 >= -32
 c488: v#0 - 32 x(50)#99 >= -16
 c490: v#0 - 32 x(50)#99 <= 16
 c492: - v#0 + y(50)#100 <= 0
 c494: - 32 x(50)#99 + y(50)#100 <= 0
 c496: - v#0 - 32 x(50)#99 + y(50)#100 >= -32
 c498: v#0 - 32 x(51)#101 >= -18
 c500: v#0 - 32 x(51)#101 <= 14
 c502: - v#0 + y(51)#102 <= 0
 c504: - 32 x(51)#101 + y(51)#102 <= 0
 c506: - v#0 - 32 x(51)#101 + y(51)#102 >= -32
 c508: v#0 - 32 x(52)#103 >= -19
 c510: v#0 - 32 x(52)#103 <= 13
 c512: - v#0 + y(52)#104 <= 0
 c514: - 32 x(52)#103 + y(52)#104 <= 0
 c516: - v#0 - 32 x(52)#103 + y(52)#104 >= -32
Bounds
 0 <= v#0 <= 32
 0 <= x(1)#1 <= 1
 0 <= y(1)#2 <= 32
 0 <= x(2)#3 <= 1
 0 <= y(2)#4 <= 32
 0 <= x(3)#5 <= 1
 0 <= y(3)#6 <= 32
 0 <= x(4)#7 <= 1
 0 <= y(4)#8 <= 32
 0 <= x(5)#9 <= 1
 0 <= y(5)#10 <= 32
 0 <= x(6)#11 <= 1
 0 <= y(6)#12 <= 32
 0 <= x(7)#13 <= 1
 0 <= y(7)#14 <= 32
 0 <= x(8)#15 <= 1
 0 <= y(8)#16 <= 32
 0 <= x(9)#17 <= 1
 0 <= y(9)#18 <= 32
 0 <= x(10)#19 <= 1
 0 <= y(10)#20 <= 32
 0 <= x(11)#21 <= 1
 0 <= y(11)#22 <= 32
 0 <= x(12)#23 <= 1
 0 <= y(12)#24 <= 32
 0 <= x(13)#25 <= 1
 0 <= y(13)#26 <= 32
 0 <= x(14)#27 <= 1
 0 <= y(14)#28 <= 32
 0 <= x(15)#29 <= 1
 0 <= y(15)#30 <= 32
 0 <= x(16)#31 <= 1
 0 <= y(16)#32 <= 32
 0 <= x(17)#33 <= 1
 0 <= y(17)#34 <= 32
 0 <= x(18)#35 <= 1
 0 <= y(18)#36 <= 32
 0 <= x(19)#37 <= 1
 0 <= y(19)#38 <= 32
 0 <= x(20)#39 <= 1
 0 <= y(20)#40 <= 32
 0 <= x(21)#41 <= 1
 0 <= y(21)#42 <= 32
 0 <= x(22)#43 <= 1
 0 <= y(22)#44 <= 32
 0 <= x(23)#45 <= 1
 0 <= y(23)#46 <= 32
 0 <= x(24)#47 <= 1
 0 <= y(24)#48 <= 32
 0 <= x(25)#49 <= 1
 0 <= y(25)#50 <= 32
 0 <= x(26)#51 <= 1
 0 <= y(26)#52 <= 32
 0 <= x(27)#53 <= 1
 0 <= y(27)#54 <= 32
 0 <= x(28)#55 <= 1
 0 <= y(28)#56 <= 32
 0 <= x(29)#57 <= 1
 0 <= y(29)#58 <= 32
 0 <= x(30)#59 <= 1
 0 <= y(30)#60 <= 32
 0 <= x(31)#61 <= 1
 0 <= y(31)#62 <= 32
 0 <= x(32)#63 <= 1
 0 <= y(32)#64 <= 32
 0 <= x(33)#65 <= 1
 0 <= y(33)#66 <= 32
 0 <= x(34)#67 <= 1
 0 <= y(34)#68 <= 32
 0 <= x(35)#69 <= 1
 0 <= y(35)#70 <= 32
 0 <= x(36)#71 <= 1
 0 <= y(36)#72 <= 32
 0 <= x(37)#73 <= 1
 0 <= y(37)#74 <= 32
 0 <= x(38)#75 <= 1
 0 <= y(38)#76 <= 32
 0 <= x(39)#77 <= 1
 0 <= y(39)#78 <= 32
 0 <= x(40)#79 <= 1
 0 <= y(40)#80 <= 32
 0 <= x(41)#81 <= 1
 0 <= y(41)#82 <= 32
 0 <= x(42)#83 <= 1
 0 <= y(42)#84 <= 32
 0 <= x(43)#85 <= 1
 0 <= y(43)#86 <= 32
 0 <= x(44)#87 <= 1
 0 <= y(44)#88 <= 32
 0 <= x(45)#89 <= 1
 0 <= y(45)#90 <= 32
 0 <= x(46)#91 <= 1
 0 <= y(46)#92 <= 32
 0 <= x(47)#93 <= 1
 0 <= y(47)#94 <= 32
 0 <= x(48)#95 <= 1
 0 <= y(48)#96 <= 32
 0 <= x(49)#97 <= 1
 0 <= y(49)#98 <= 32
 0 <= x(50)#99 <= 1
 0 <= y(50)#100 <= 32
 0 <= x(51)#101 <= 1
 0 <= y(51)#102 <= 32
 0 <= x(52)#103 <= 1
 0 <= y(52)#104 <= 32
      dummy#105 = 1
Generals
 v#0  x(1)#1  y(1)#2  x(2)#3  y(2)#4  x(3)#5  y(3)#6  x(4)#7  y(4)#8  x(5)#9 
 y(5)#10  x(6)#11  y(6)#12  x(7)#13  y(7)#14  x(8)#15  y(8)#16  x(9)#17 
 y(9)#18  x(10)#19  y(10)#20  x(11)#21  y(11)#22  x(12)#23  y(12)#24  x(13)#25 
 y(13)#26  x(14)#27  y(14)#28  x(15)#29  y(15)#30  x(16)#31  y(16)#32 
 x(17)#33  y(17)#34  x(18)#35  y(18)#36  x(19)#37  y(19)#38  x(20)#39 
 y(20)#40  x(21)#41  y(21)#42  x(22)#43  y(22)#44  x(23)#45  y(23)#46 
 x(24)#47  y(24)#48  x(25)#49  y(25)#50  x(26)#51  y(26)#52  x(27)#53 
 y(27)#54  x(28)#55  y(28)#56  x(29)#57  y(29)#58  x(30)#59  y(30)#60 
 x(31)#61  y(31)#62  x(32)#63  y(32)#64  x(33)#65  y(33)#66  x(34)#67 
 y(34)#68  x(35)#69  y(35)#70  x(36)#71  y(36)#72  x(37)#73  y(37)#74 
 x(38)#75  y(38)#76  x(39)#77  y(39)#78  x(40)#79  y(40)#80  x(41)#81 
 y(41)#82  x(42)#83  y(42)#84  x(43)#85  y(43)#86  x(44)#87  y(44)#88 
 x(45)#89  y(45)#90  x(46)#91  y(46)#92  x(47)#93  y(47)#94  x(48)#95 
 y(48)#96  x(49)#97  y(49)#98  x(50)#99  y(50)#100  x(51)#101  y(51)#102 
 x(52)#103  y(52)#104  dummy#105 
End
