Fleet.log
Fixed cost = 350
Variable cost = 150
Hiring cost = 800
v[1] = 12
v[2] = 15
v[3] = 16
v[4] = 17
v[5] = 17
v[6] = 18
v[7] = 20
v[8] = 20
v[9] = 21
v[10] = 22
v[11] = 24
v[12] = 22
v[13] = 20
v[14] = 18
v[15] = 17
v[16] = 16
v[17] = 14
v[18] = 13
v[19] = 13
v[20] = 14
v[21] = 15
v[22] = 16
v[23] = 17
v[24] = 19
v[25] = 21
v[26] = 22
v[27] = 23
v[28] = 22
v[29] = 24
v[30] = 26
v[31] = 27
v[32] = 28
v[33] = 30
v[34] = 32
v[35] = 32
v[36] = 30
v[37] = 29
v[38] = 28
v[39] = 26
v[40] = 25
v[41] = 25
v[42] = 24
v[43] = 22
v[44] = 22
v[45] = 19
v[46] = 20
v[47] = 18
v[48] = 17
v[49] = 16
v[50] = 16
v[51] = 14
v[52] = 13
mav value = 32
Found incumbent of value 853600.000000 after 0.00 sec. (0.01 ticks)
Found incumbent of value 742450.000000 after 0.00 sec. (0.01 ticks)
Tried aggregator 1 time.
MIP Presolve eliminated 2 rows and 1 columns.
MIP Presolve modified 200 coefficients.
Reduced MIP has 258 rows, 105 columns, and 568 nonzeros.
Reduced MIP has 52 binaries, 53 generals, 0 SOSs, and 0 indicators.
Presolve time = 0.00 sec. (0.66 ticks)
Probing time = 0.02 sec. (1.68 ticks)
Tried aggregator 1 time.
MIP Presolve eliminated 8 rows and 4 columns.
Reduced MIP has 250 rows, 101 columns, and 550 nonzeros.
Reduced MIP has 50 binaries, 51 generals, 0 SOSs, and 0 indicators.
Presolve time = 0.00 sec. (0.40 ticks)
Probing time = 0.00 sec. (1.68 ticks)
Clique table members: 459.
MIP emphasis: balance optimality and feasibility.
MIP search method: dynamic search.
Parallel mode: deterministic, using up to 4 threads.
Root relaxation solution time = 0.00 sec. (0.75 ticks)

        Nodes                                         Cuts/
   Node  Left     Objective  IInf  Best Integer    Best Bound    ItCnt     Gap

*     0+    0                       742450.0000  -297550.0000       66  140.08%
      0     0   426550.0000    49   742450.0000   426550.0000       66   42.55%
*     0+    0                       666400.0000   426550.0000       66   35.99%
      0     0   465550.0000    49   666400.0000     Cuts: 162      112   30.14%
      0     0   481150.0000    64   666400.0000     Cuts: 162      164   27.80%
      0     0   516793.4994    91   666400.0000     Cuts: 162      235   22.45%
      0     0   545117.8428    94   666400.0000     Cuts: 162      274   18.20%
      0     0   560769.6722    91   666400.0000     Cuts: 162      301   15.85%
*     0+    0                       607900.0000   560769.6722      301    7.75%
*     0+    0                       606600.0000   560769.6722      301    7.56%
      0     0        cutoff         606600.0000   606600.0000      301    0.00%
Elapsed time = 0.05 sec. (24.12 ticks, tree = 0.00 MB, solutions = 4)

Clique cuts applied:  11
Cover cuts applied:  104
Implied bound cuts applied:  59
Zero-half cuts applied:  4
Lift and project cuts applied:  2
Gomory fractional cuts applied:  3

Root node processing (before b&c):
  Real time             =    0.06 sec. (24.13 ticks)
Parallel b&c, 4 threads:
  Real time             =    0.00 sec. (0.00 ticks)
  Sync time (average)   =    0.00 sec.
  Wait time (average)   =    0.00 sec.
                          ------------
Total (root+branch&cut) =    0.06 sec. (24.13 ticks)
Objective value = 606600.0
v = 19.0
